SAT
-2 74 1 43 -33 37 -92 -39 42 -65 79 85 -30 -19 67 -60 -5 34 59 22 -3 18 -61 -32 70 -77 98 83 -82 -41 50 99 75 -94 -95 -23 13 -89 63 -14 26 9 27 8 -36 12 -68 -47 -87 -56 45 16 -20 17 44 7 90 38 73 -96 -54 78 6 -100 -48 -40 35 -11 -15 21 -71 66 24 55 -76 -69 -64 -49 10 -58 -52 57 -84 -53 -81 -86 31 -51 93 -46 -91 -62 -25 -29 72 4 88 -28 -97 80 0
